NAME: tsp45_10
COMMENT: 45-tsp problem (Padberg/Rinaldi)
TYPE: TSP
DIMENSION: 45
EDGE_WEIGHT_TYPE : EUC_2D
NODE_COORD_SECTION
1 36 30
2 32 25
3 40 12
4 22 10
5 19 8
6 27 3
7 12 24
8 14 39
9 27 13
10 25 38
11 27 30
12 22 33
13 11 38
14 3 2
15 17 18
16 12 28
17 22 7
18 13 9
19 8 10
20 8 17
21 33 33
22 3 26
23 12 36
24 34 31
25 17 31
26 13 9
27 36 22
28 15 7
29 6 15
30 24 29
31 28 35
32 29 19
33 28 32
34 28 7
35 36 36
36 30 9
37 15 29
38 12 39
39 30 34
40 2 14
41 9 7
42 18 20
43 17 4
44 33 3
45 32 14
